Minimize
 obj: 32000 x1 + 18999 x2 + 47777 x3 + 25000 x4 + 36663 x5 + 29999 x6 + 64000 x7 + 37333 x8 + 30000 x9 + 1255555 x10 + 29900 x11 + 20999 x12 + 24123 x13 + 30000 x14 + 18888 x15 + 16666 x16 + 29999 x17 + 20000 x18 + 20000 x19 + 79000 x20 + 70000 x21 + 17000 x22 + 29000 x23 + 40000 x24 + 24444 x25 + 43555 x26 + 490000 x27 + 23333 x28 + 24069 x29 + 23333 x30 + 51900 x31 + 113420 x32 + 61000 x33 + 38888 x34 + 60000 x35 + 478000 x36 + 29999 x37 + 28499 x38 + 60000 x39 + 50500 x40 + 60000 x41 + 46555 x42 + 48998 x43 + 35000 x44 + 63333 x45 + 58000 x46 + 38888 x47 + 22222 x48 + 15600 x49 + 27420 x50 + 20000 x51 + 20000 x52 + 25555 x53 + 35000 x54 + 35555 x55 + 20000 x56 + 32111 x57 + 41000 x58 + 19999 x59 + 40000 x60 + 30999 x61 + 37999 x62 + 25998 x63 + 34999 x64 + 45000 x65 + 27000 x66 + 62995 x67 + 52999 x68 + 106999 x69 + 28500 x70 + 90000 x71 + 69000 x72 + 47777 x73 + 30999 x74 + 50000 x75 + 24999 x76 + 37000 x77 + 33222 x78 + 22890 x79 + 26000 x80 + 34884 x81 + 55555 x82 + 35000 x83 + 39300 x84 + 58000 x85 + 39998 x86 + 18000 x87 + 45000 x88 + 25000 x89 + 140999 x90 + 99000 x91 + 635000 x92 + 44444 x93 + 45000 x94 + 200000 x95 + 40000 x96 + 32777 x97 + 29999 x98 + 29900 x99 + 15000 x100 + 27777 x101 + 29999 x102 + 30000 x103 + 588889 x104 + 322222 x105 + 999999 x106 + 800000 x107 + 42222 x108 + 366555 x109 + 31998 x110 + 29999 x111 + 43333 x112 + 16666 x113 + 50000 x114 + 21069 x115 + 37777 x116 + 35000 x117 + 45000 x118 + 34000 x119 + 135000 x120 + 71111 x121 + 40000 x122 + 33000 x123 + 210900 x124 + 33300 x125 + 57776 x126 + 23980 x127 + 35000 x128 + 38549 x129 + 29500 x130 + 165554 x131 + 40000 x132 + 33333 x133 + 25555 x134 + 32222 x135 + 20511 x136 + 38888 x137 + 27800 x138 + 36000 x139 + 32222 x140 + 24000 x141 + 23333 x142 + 23000 x143 + 71111 x144 + 55000 x145 + 41111 x146 + 35000 x147 + 28000 x148 + 44444 x149 + 45555 x150 + 29500 x151 + 57000 x152 + 319999 x153 + 40000 x154 + 20000 x155 + 31000 x156 + 33000 x157 + 25999 x158 + 57500 x159 + 36666 x160 + 31111 x161 + 55000 x162 + 23333 x163 + 25399 x164 + 29888 x165 + 47000 x166 + 38000 x167 + 48999 x168 + 38000 x169 + 40000 x170 + 35000 x171 + 25555 x172 + 35555 x173 + 31111 x174 + 24444 x175 + 50998 x176 + 55000 x177 + 17777 x178 + 28999 x179 + 36899 x180 + 540000 x181 + 27000 x182 + 27000 x183 + 50000 x184 + 74000 x185 + 22500 x186 + 23123 x187 + 27000 x188 + 27998 x189 + 44444 x190 + 29999 x191 + 25000 x192 + 23442 x193 + 28000 x194 + 26000 x195 + 54000 x196 + 26666 x197 + 25000 x198 + 49888 x199 + 32400 x200 + 38000 x201 + 21988 x202 + 19000 x203 + 290000 x204 + 83000 x205 + 66665 x206 + 24000 x207 + 34444 x208 + 77899 x209 + 24444 x210 + 18499 x211 + 45000 x212 + 45000 x213 + 25300 x214 + 80000 x215 + 56999 x216 + 48799 x217 + 120000 x218 + 75555 x219 + 151111 x220 + 35000 x221 + 62000 x222 + 150000 x223 + 55000 x224 + 28500 x225 + 31554 x226 + 42995 x227 + 59980 x228 + 21776 x229 + 29777 x230 + 42222 x231 + 58000 x232 + 18899 x233 + 21000 x234 + 35555 x235 + 24110 x236 + 29999 x237 + 63000 x238 + 41111 x239 + 54000 x240 + 41111 x241 + 12000 x242 + 364000 x243 + 118999 x244 + 45555 x245 + 40000 x246 + 1444444 x247 + 566666 x248 + 48888 x249 + 28000 x250 + 21111 x251 + 38500 x252 + 31111 x253 + 32000 x254 + 41000 x255 + 52777 x256 + 299999 x257 + 28000 x258 + 46999 x259 + 51000 x260 + 70000 x261 + 81500 x262 + 33333 x263 + 33500 x264 + 62000 x265 + 68000 x266 + 28888 x267 + 16777 x268 + 28000 x269 + 30000 x270 + 57575 x271 + 51555 x272 + 70000 x273 + 69999 x274 + 65000 x275 + 28888 x276 + 26500 x277 + 27000 x278 + 29969 x279 + 24000 x280 + 52000 x281 + 43000 x282 + 26000 x283 + 66000 x284 + 51000 x285 + 55522 x286 + 40995 x287 + 56000 x288 + 65444 x289 + 38000 x290 + 42222 x291 + 100000 x292 + 77000 x293 + 33000 x294 + 74000 x295 + 34444 x296 + 48000 x297 + 32000 x298 + 37500 x299 + 29998 x300 + 52000 x301 + 34000 x302 + 44000 x303 + 57123 x304 + 94000 x305 + 73000 x306 + 54700 x307 + 48000 x308 + 64000 x309 + 55000 x310 + 61998 x311 + 60000 x312 + 28000 x313

Subject To
 minimumBasePriceConstraint: 42902 x1 + 43000 x2 + 58000 x3 + 38050 x4 + 41889 x5 + 55784 x6 + 91951 x7 + 61563 x8 + 38177 x9 + 1500000 x10 + 42728 x11 + 41616 x12 + 47712 x13 + 45247 x14 + 32991 x15 + 37600 x16 + 31000 x17 + 33778 x18 + 35502 x19 + 92000 x20 + 80000 x21 + 40152 x22 + 58000 x23 + 71000 x24 + 46900 x25 + 67800 x26 + 600000 x27 + 42714 x28 + 43874 x29 + 39372 x30 + 69600 x31 + 162935 x32 + 83316 x33 + 62308 x34 + 71049 x35 + 748453 x36 + 48413 x37 + 48176 x38 + 95000 x39 + 62169 x40 + 90000 x41 + 60200 x42 + 69000 x43 + 50340 x44 + 97230 x45 + 90000 x46 + 53631 x47 + 34469 x48 + 30688 x49 + 39742 x50 + 36659 x51 + 38263 x52 + 47834 x53 + 67325 x54 + 58580 x55 + 44056 x56 + 44100 x57 + 45027 x58 + 31999 x59 + 67363 x60 + 48929 x61 + 44599 x62 + 36958 x63 + 35663 x64 + 51648 x65 + 39912 x66 + 77022 x67 + 81402 x68 + 167402 x69 + 46950 x70 + 93579 x71 + 87426 x72 + 52160 x73 + 32145 x74 + 60604 x75 + 44005 x76 + 41253 x77 + 33500 x78 + 36428 x79 + 44639 x80 + 55449 x81 + 90566 x82 + 60290 x83 + 63029 x84 + 94600 x85 + 63402 x86 + 35600 x87 + 77500 x88 + 41200 x89 + 224600 x90 + 152400 x91 + 970000 x92 + 74800 x93 + 51200 x94 + 310000 x95 + 61200 x96 + 35893 x97 + 33540 x98 + 41325 x99 + 31460 x100 + 32000 x101 + 44500 x102 + 48125 x103 + 900000 x104 + 350000 x105 + 1700000 x106 + 1650000 x107 + 50000 x108 + 600000 x109 + 36742 x110 + 37755 x111 + 48520 x112 + 32940 x113 + 93800 x114 + 35889 x115 + 63450 x116 + 36000 x117 + 72000 x118 + 41200 x119 + 166000 x120 + 81200 x121 + 62000 x122 + 55000 x123 + 330000 x124 + 56000 x125 + 82000 x126 + 38000 x127 + 60000 x128 + 61200 x129 + 45600 x130 + 200000 x131 + 55000 x132 + 37000 x133 + 37940 x134 + 50000 x135 + 33000 x136 + 62000 x137 + 31600 x138 + 52139 x139 + 49251 x140 + 32000 x141 + 35000 x142 + 40000 x143 + 95021 x144 + 84211 x145 + 43296 x146 + 35600 x147 + 51344 x148 + 49000 x149 + 49000 x150 + 51714 x151 + 85000 x152 + 510000 x153 + 54120 x154 + 35100 x155 + 48000 x156 + 52000 x157 + 42000 x158 + 94900 x159 + 38250 x160 + 49500 x161 + 59545 x162 + 37570 x163 + 40300 x164 + 45500 x165 + 55900 x166 + 61893 x167 + 77000 x168 + 65700 x169 + 66330 x170 + 60125 x171 + 33000 x172 + 55000 x173 + 54520 x174 + 37742 x175 + 80600 x176 + 89700 x177 + 30015 x178 + 44300 x179 + 41600 x180 + 832500 x181 + 31000 x182 + 30148 x183 + 52000 x184 + 124000 x185 + 35000 x186 + 30148 x187 + 49137 x188 + 50000 x189 + 75794 x190 + 30000 x191 + 33750 x192 + 32400 x193 + 50892 x194 + 40542 x195 + 83029 x196 + 45000 x197 + 41742 x198 + 95000 x199 + 59000 x200 + 65000 x201 + 35533 x202 + 31263 x203 + 458453 x204 + 132000 x205 + 105000 x206 + 34401 x207 + 58131 x208 + 145000 x209 + 38000 x210 + 30000 x211 + 71000 x212 + 80000 x213 + 45000 x214 + 104000 x215 + 95000 x216 + 49000 x217 + 180000 x218 + 79350 x219 + 260000 x220 + 57000 x221 + 97000 x222 + 250000 x223 + 86700 x224 + 51000 x225 + 50000 x226 + 68000 x227 + 80000 x228 + 35000 x229 + 47250 x230 + 58000 x231 + 69000 x232 + 30000 x233 + 35000 x234 + 72000 x235 + 42965 x236 + 59000 x237 + 67000 x238 + 65300 x239 + 66000 x240 + 60000 x241 + 30090 x242 + 750000 x243 + 132000 x244 + 75101 x245 + 72421 x246 + 1500000 x247 + 1000000 x248 + 65812 x249 + 47152 x250 + 34522 x251 + 42421 x252 + 42111 x253 + 55521 x254 + 69524 x255 + 86724 x256 + 1500000 x257 + 50025 x258 + 75000 x259 + 75000 x260 + 100000 x261 + 100000 x262 + 50000 x263 + 50000 x264 + 100000 x265 + 68601 x266 + 30425 x267 + 31254 x268 + 41251 x269 + 31623 x270 + 87460 x271 + 75000 x272 + 100000 x273 + 100000 x274 + 100000 x275 + 43500 x276 + 44100 x277 + 41142 x278 + 40124 x279 + 38674 x280 + 85643 x281 + 56745 x282 + 37573 x283 + 69444 x284 + 65823 x285 + 62412 x286 + 42345 x287 + 64535 x288 + 72548 x289 + 61308 x290 + 68920 x291 + 155126 x292 + 132155 x293 + 55553 x294 + 165000 x295 + 74400 x296 + 79500 x297 + 63500 x298 + 63000 x299 + 35410 x300 + 63453 x301 + 49550 x302 + 59460 x303 + 93435 x304 + 152521 x305 + 123525 x306 + 86634 x307 + 97525 x308 + 97525 x309 + 102334 x310 + 102334 x311 + 102529 x312 + 43520 x313 >= 400000

numberOfItemsConstraint: x1 + x2 + x3 + x4 + x5 + x6 + x7 + x8 + x9 + x10 + x11 + x12 + x13 + x14 + x15 + x16 + x17 + x18 + x19 + x20 + x21 + x22 + x23 + x24 + x25 + x26 + x27 + x28 + x29 + x30 + x31 + x32 + x33 + x34 + x35 + x36 + x37 + x38 + x39 + x40 + x41 + x42 + x43 + x44 + x45 + x46 + x47 + x48 + x49 + x50 + x51 + x52 + x53 + x54 + x55 + x56 + x57 + x58 + x59 + x60 + x61 + x62 + x63 + x64 + x65 + x66 + x67 + x68 + x69 + x70 + x71 + x72 + x73 + x74 + x75 + x76 + x77 + x78 + x79 + x80 + x81 + x82 + x83 + x84 + x85 + x86 + x87 + x88 + x89 + x90 + x91 + x92 + x93 + x94 + x95 + x96 + x97 + x98 + x99 + x100 + x101 + x102 + x103 + x104 + x105 + x106 + x107 + x108 + x109 + x110 + x111 + x112 + x113 + x114 + x115 + x116 + x117 + x118 + x119 + x120 + x121 + x122 + x123 + x124 + x125 + x126 + x127 + x128 + x129 + x130 + x131 + x132 + x133 + x134 + x135 + x136 + x137 + x138 + x139 + x140 + x141 + x142 + x143 + x144 + x145 + x146 + x147 + x148 + x149 + x150 + x151 + x152 + x153 + x154 + x155 + x156 + x157 + x158 + x159 + x160 + x161 + x162 + x163 + x164 + x165 + x166 + x167 + x168 + x169 + x170 + x171 + x172 + x173 + x174 + x175 + x176 + x177 + x178 + x179 + x180 + x181 + x182 + x183 + x184 + x185 + x186 + x187 + x188 + x189 + x190 + x191 + x192 + x193 + x194 + x195 + x196 + x197 + x198 + x199 + x200 + x201 + x202 + x203 + x204 + x205 + x206 + x207 + x208 + x209 + x210 + x211 + x212 + x213 + x214 + x215 + x216 + x217 + x218 + x219 + x220 + x221 + x222 + x223 + x224 + x225 + x226 + x227 + x228 + x229 + x230 + x231 + x232 + x233 + x234 + x235 + x236 + x237 + x238 + x239 + x240 + x241 + x242 + x243 + x244 + x245 + x246 + x247 + x248 + x249 + x250 + x251 + x252 + x253 + x254 + x255 + x256 + x257 + x258 + x259 + x260 + x261 + x262 + x263 + x264 + x265 + x266 + x267 + x268 + x269 + x270 + x271 + x272 + x273 + x274 + x275 + x276 + x277 + x278 + x279 + x280 + x281 + x282 + x283 + x284 + x285 + x286 + x287 + x288 + x289 + x290 + x291 + x292 + x293 + x294 + x295 + x296 + x297 + x298 + x299 + x300 + x301 + x302 + x303 + x304 + x305 + x306 + x307 + x308 + x309 + x310 + x311 + x312 + x313 <= 5

Bounds
 0 <= x1 <= 5
 0 <= x2 <= 5
 0 <= x3 <= 5
 0 <= x4 <= 5
 0 <= x5 <= 5
 0 <= x6 <= 5
 0 <= x7 <= 5
 0 <= x8 <= 5
 0 <= x9 <= 5
 0 <= x10 <= 5
 0 <= x11 <= 5
 0 <= x12 <= 5
 0 <= x13 <= 5
 0 <= x14 <= 5
 0 <= x15 <= 5
 0 <= x16 <= 5
 0 <= x17 <= 5
 0 <= x18 <= 5
 0 <= x19 <= 5
 0 <= x20 <= 5
 0 <= x21 <= 5
 0 <= x22 <= 5
 0 <= x23 <= 5
 0 <= x24 <= 5
 0 <= x25 <= 5
 0 <= x26 <= 5
 0 <= x27 <= 5
 0 <= x28 <= 5
 0 <= x29 <= 5
 0 <= x30 <= 5
 0 <= x31 <= 5
 0 <= x32 <= 5
 0 <= x33 <= 5
 0 <= x34 <= 5
 0 <= x35 <= 5
 0 <= x36 <= 5
 0 <= x37 <= 5
 0 <= x38 <= 5
 0 <= x39 <= 5
 0 <= x40 <= 5
 0 <= x41 <= 5
 0 <= x42 <= 5
 0 <= x43 <= 5
 0 <= x44 <= 5
 0 <= x45 <= 5
 0 <= x46 <= 5
 0 <= x47 <= 5
 0 <= x48 <= 5
 0 <= x49 <= 5
 0 <= x50 <= 5
 0 <= x51 <= 5
 0 <= x52 <= 5
 0 <= x53 <= 5
 0 <= x54 <= 5
 0 <= x55 <= 5
 0 <= x56 <= 5
 0 <= x57 <= 5
 0 <= x58 <= 5
 0 <= x59 <= 5
 0 <= x60 <= 5
 0 <= x61 <= 5
 0 <= x62 <= 5
 0 <= x63 <= 5
 0 <= x64 <= 5
 0 <= x65 <= 5
 0 <= x66 <= 5
 0 <= x67 <= 5
 0 <= x68 <= 5
 0 <= x69 <= 5
 0 <= x70 <= 5
 0 <= x71 <= 5
 0 <= x72 <= 5
 0 <= x73 <= 5
 0 <= x74 <= 5
 0 <= x75 <= 5
 0 <= x76 <= 5
 0 <= x77 <= 5
 0 <= x78 <= 5
 0 <= x79 <= 5
 0 <= x80 <= 5
 0 <= x81 <= 5
 0 <= x82 <= 5
 0 <= x83 <= 5
 0 <= x84 <= 5
 0 <= x85 <= 5
 0 <= x86 <= 5
 0 <= x87 <= 5
 0 <= x88 <= 5
 0 <= x89 <= 5
 0 <= x90 <= 5
 0 <= x91 <= 5
 0 <= x92 <= 5
 0 <= x93 <= 5
 0 <= x94 <= 5
 0 <= x95 <= 5
 0 <= x96 <= 5
 0 <= x97 <= 5
 0 <= x98 <= 5
 0 <= x99 <= 5
 0 <= x100 <= 5
 0 <= x101 <= 5
 0 <= x102 <= 5
 0 <= x103 <= 5
 0 <= x104 <= 5
 0 <= x105 <= 5
 0 <= x106 <= 5
 0 <= x107 <= 5
 0 <= x108 <= 5
 0 <= x109 <= 5
 0 <= x110 <= 5
 0 <= x111 <= 5
 0 <= x112 <= 5
 0 <= x113 <= 5
 0 <= x114 <= 5
 0 <= x115 <= 5
 0 <= x116 <= 5
 0 <= x117 <= 5
 0 <= x118 <= 5
 0 <= x119 <= 5
 0 <= x120 <= 5
 0 <= x121 <= 5
 0 <= x122 <= 5
 0 <= x123 <= 5
 0 <= x124 <= 5
 0 <= x125 <= 5
 0 <= x126 <= 5
 0 <= x127 <= 5
 0 <= x128 <= 5
 0 <= x129 <= 5
 0 <= x130 <= 5
 0 <= x131 <= 5
 0 <= x132 <= 5
 0 <= x133 <= 5
 0 <= x134 <= 5
 0 <= x135 <= 5
 0 <= x136 <= 5
 0 <= x137 <= 5
 0 <= x138 <= 5
 0 <= x139 <= 5
 0 <= x140 <= 5
 0 <= x141 <= 5
 0 <= x142 <= 5
 0 <= x143 <= 5
 0 <= x144 <= 5
 0 <= x145 <= 5
 0 <= x146 <= 5
 0 <= x147 <= 5
 0 <= x148 <= 5
 0 <= x149 <= 5
 0 <= x150 <= 5
 0 <= x151 <= 5
 0 <= x152 <= 5
 0 <= x153 <= 5
 0 <= x154 <= 5
 0 <= x155 <= 5
 0 <= x156 <= 5
 0 <= x157 <= 5
 0 <= x158 <= 5
 0 <= x159 <= 5
 0 <= x160 <= 5
 0 <= x161 <= 5
 0 <= x162 <= 5
 0 <= x163 <= 5
 0 <= x164 <= 5
 0 <= x165 <= 5
 0 <= x166 <= 5
 0 <= x167 <= 5
 0 <= x168 <= 5
 0 <= x169 <= 5
 0 <= x170 <= 5
 0 <= x171 <= 5
 0 <= x172 <= 5
 0 <= x173 <= 5
 0 <= x174 <= 5
 0 <= x175 <= 5
 0 <= x176 <= 5
 0 <= x177 <= 5
 0 <= x178 <= 5
 0 <= x179 <= 5
 0 <= x180 <= 5
 0 <= x181 <= 5
 0 <= x182 <= 5
 0 <= x183 <= 5
 0 <= x184 <= 5
 0 <= x185 <= 5
 0 <= x186 <= 5
 0 <= x187 <= 5
 0 <= x188 <= 5
 0 <= x189 <= 5
 0 <= x190 <= 5
 0 <= x191 <= 5
 0 <= x192 <= 5
 0 <= x193 <= 5
 0 <= x194 <= 5
 0 <= x195 <= 5
 0 <= x196 <= 5
 0 <= x197 <= 5
 0 <= x198 <= 5
 0 <= x199 <= 5
 0 <= x200 <= 5
 0 <= x201 <= 5
 0 <= x202 <= 5
 0 <= x203 <= 5
 0 <= x204 <= 5
 0 <= x205 <= 5
 0 <= x206 <= 5
 0 <= x207 <= 5
 0 <= x208 <= 5
 0 <= x209 <= 5
 0 <= x210 <= 5
 0 <= x211 <= 5
 0 <= x212 <= 5
 0 <= x213 <= 5
 0 <= x214 <= 5
 0 <= x215 <= 5
 0 <= x216 <= 5
 0 <= x217 <= 5
 0 <= x218 <= 5
 0 <= x219 <= 5
 0 <= x220 <= 5
 0 <= x221 <= 5
 0 <= x222 <= 5
 0 <= x223 <= 5
 0 <= x224 <= 5
 0 <= x225 <= 5
 0 <= x226 <= 5
 0 <= x227 <= 5
 0 <= x228 <= 5
 0 <= x229 <= 5
 0 <= x230 <= 5
 0 <= x231 <= 5
 0 <= x232 <= 5
 0 <= x233 <= 5
 0 <= x234 <= 5
 0 <= x235 <= 5
 0 <= x236 <= 5
 0 <= x237 <= 5
 0 <= x238 <= 5
 0 <= x239 <= 5
 0 <= x240 <= 5
 0 <= x241 <= 5
 0 <= x242 <= 5
 0 <= x243 <= 5
 0 <= x244 <= 5
 0 <= x245 <= 5
 0 <= x246 <= 5
 0 <= x247 <= 5
 0 <= x248 <= 5
 0 <= x249 <= 5
 0 <= x250 <= 5
 0 <= x251 <= 5
 0 <= x252 <= 5
 0 <= x253 <= 5
 0 <= x254 <= 5
 0 <= x255 <= 5
 0 <= x256 <= 5
 0 <= x257 <= 5
 0 <= x258 <= 5
 0 <= x259 <= 5
 0 <= x260 <= 5
 0 <= x261 <= 5
 0 <= x262 <= 5
 0 <= x263 <= 5
 0 <= x264 <= 5
 0 <= x265 <= 5
 0 <= x266 <= 5
 0 <= x267 <= 5
 0 <= x268 <= 5
 0 <= x269 <= 5
 0 <= x270 <= 5
 0 <= x271 <= 5
 0 <= x272 <= 5
 0 <= x273 <= 5
 0 <= x274 <= 5
 0 <= x275 <= 5
 0 <= x276 <= 5
 0 <= x277 <= 5
 0 <= x278 <= 5
 0 <= x279 <= 5
 0 <= x280 <= 5
 0 <= x281 <= 5
 0 <= x282 <= 5
 0 <= x283 <= 5
 0 <= x284 <= 5
 0 <= x285 <= 5
 0 <= x286 <= 5
 0 <= x287 <= 5
 0 <= x288 <= 5
 0 <= x289 <= 5
 0 <= x290 <= 5
 0 <= x291 <= 5
 0 <= x292 <= 5
 0 <= x293 <= 5
 0 <= x294 <= 5
 0 <= x295 <= 5
 0 <= x296 <= 5
 0 <= x297 <= 5
 0 <= x298 <= 5
 0 <= x299 <= 5
 0 <= x300 <= 5
 0 <= x301 <= 5
 0 <= x302 <= 5
 0 <= x303 <= 5
 0 <= x304 <= 5
 0 <= x305 <= 5
 0 <= x306 <= 5
 0 <= x307 <= 5
 0 <= x308 <= 5
 0 <= x309 <= 5
 0 <= x310 <= 5
 0 <= x311 <= 5
 0 <= x312 <= 5
 0 <= x313 <= 5

General
 x1
 x2
 x3
 x4
 x5
 x6
 x7
 x8
 x9
 x10
 x11
 x12
 x13
 x14
 x15
 x16
 x17
 x18
 x19
 x20
 x21
 x22
 x23
 x24
 x25
 x26
 x27
 x28
 x29
 x30
 x31
 x32
 x33
 x34
 x35
 x36
 x37
 x38
 x39
 x40
 x41
 x42
 x43
 x44
 x45
 x46
 x47
 x48
 x49
 x50
 x51
 x52
 x53
 x54
 x55
 x56
 x57
 x58
 x59
 x60
 x61
 x62
 x63
 x64
 x65
 x66
 x67
 x68
 x69
 x70
 x71
 x72
 x73
 x74
 x75
 x76
 x77
 x78
 x79
 x80
 x81
 x82
 x83
 x84
 x85
 x86
 x87
 x88
 x89
 x90
 x91
 x92
 x93
 x94
 x95
 x96
 x97
 x98
 x99
 x100
 x101
 x102
 x103
 x104
 x105
 x106
 x107
 x108
 x109
 x110
 x111
 x112
 x113
 x114
 x115
 x116
 x117
 x118
 x119
 x120
 x121
 x122
 x123
 x124
 x125
 x126
 x127
 x128
 x129
 x130
 x131
 x132
 x133
 x134
 x135
 x136
 x137
 x138
 x139
 x140
 x141
 x142
 x143
 x144
 x145
 x146
 x147
 x148
 x149
 x150
 x151
 x152
 x153
 x154
 x155
 x156
 x157
 x158
 x159
 x160
 x161
 x162
 x163
 x164
 x165
 x166
 x167
 x168
 x169
 x170
 x171
 x172
 x173
 x174
 x175
 x176
 x177
 x178
 x179
 x180
 x181
 x182
 x183
 x184
 x185
 x186
 x187
 x188
 x189
 x190
 x191
 x192
 x193
 x194
 x195
 x196
 x197
 x198
 x199
 x200
 x201
 x202
 x203
 x204
 x205
 x206
 x207
 x208
 x209
 x210
 x211
 x212
 x213
 x214
 x215
 x216
 x217
 x218
 x219
 x220
 x221
 x222
 x223
 x224
 x225
 x226
 x227
 x228
 x229
 x230
 x231
 x232
 x233
 x234
 x235
 x236
 x237
 x238
 x239
 x240
 x241
 x242
 x243
 x244
 x245
 x246
 x247
 x248
 x249
 x250
 x251
 x252
 x253
 x254
 x255
 x256
 x257
 x258
 x259
 x260
 x261
 x262
 x263
 x264
 x265
 x266
 x267
 x268
 x269
 x270
 x271
 x272
 x273
 x274
 x275
 x276
 x277
 x278
 x279
 x280
 x281
 x282
 x283
 x284
 x285
 x286
 x287
 x288
 x289
 x290
 x291
 x292
 x293
 x294
 x295
 x296
 x297
 x298
 x299
 x300
 x301
 x302
 x303
 x304
 x305
 x306
 x307
 x308
 x309
 x310
 x311
 x312
 x313

End
